\ Model Caixeiro_Viajante_MTZ
\ LP format - for model browsing. Use MPS format to capture full model detail.
Minimize
  532.6434079194072 C0 + 577.0138646514484 C1 + 321.1790777743781 C2
   + 339.324328629705 C3 + 406.6362010446193 C4 + 216.0601768026676 C5
   + 397.5550276376844 C6 + 646.2584622269948 C7 + 392.3901120058965 C8
   + 532.6434079194072 C9 + 159.8812058998805 C10 + 853.4453702493206 C11
   + 846.5754544043904 C12 + 542.2121356074576 C13 + 347.8462303949836 C14
   + 612.6116224819767 C15 + 638.5992483553359 C16 + 769.0624161926 C17
   + 577.0138646514484 C18 + 159.8812058998805 C19 + 886.3503821852845 C20
   + 853.2338483674918 C21 + 676.0118342159403 C22 + 364.8191332701726 C23
   + 738.9756423590699 C24 + 793.665546688276 C25 + 729.0877862095895 C26
   + 321.1790777743781 C27 + 853.4453702493206 C28 + 886.3503821852845 C29
   + 143.6558387257545 C30 + 613.8346682943218 C31 + 521.8524695735376 C32
   + 562.7379496710703 C33 + 848.8262484160113 C34 + 387.5590277622236 C35
   + 339.324328629705 C36 + 846.5754544043904 C37 + 853.2338483674918 C38
   + 143.6558387257545 C39 + 700.0628543209531 C40 + 500.1209853625421 C41
   + 661.314599869079 C42 + 941.3718712602368 C43 + 255.0078430166413 C44
   + 406.6362010446193 C45 + 542.2121356074576 C46 + 676.0118342159403 C47
   + 613.8346682943218 C48 + 700.0628543209531 C49 + 472.1493407810711 C50
   + 84.17244204607586 C51 + 242.6375898330677 C52 + 799.0150186323158 C53
   + 216.0601768026676 C54 + 347.8462303949836 C55 + 364.8191332701726 C56
   + 521.8524695735376 C57 + 500.1209853625421 C58 + 472.1493407810711 C59
   + 500.6395909234506 C60 + 678.8755408762346 C61 + 438.1141403789656 C62
   + 397.5550276376844 C63 + 612.6116224819767 C64 + 738.9756423590699 C65
   + 562.7379496710703 C66 + 661.314599869079 C67 + 84.17244204607586 C68
   + 500.6395909234506 C69 + 286.8449058289165 C70 + 785.2082526311093 C71
   + 646.2584622269948 C72 + 638.5992483553359 C73 + 793.665546688276 C74
   + 848.8262484160113 C75 + 941.3718712602368 C76 + 242.6375898330677 C77
   + 678.8755408762346 C78 + 286.8449058289165 C79 + 1038.152204640533 C80
   + 392.3901120058965 C81 + 769.0624161926 C82 + 729.0877862095895 C83
   + 387.5590277622236 C84 + 255.0078430166413 C85 + 799.0150186323158 C86
   + 438.1141403789656 C87 + 785.2082526311093 C88 + 1038.152204640533 C89
Subject To
 R0: C9 + C18 + C27 + C36 + C45 + C54 + C63 + C72 + C81 = 1
 R1: C0 + C19 + C28 + C37 + C46 + C55 + C64 + C73 + C82 = 1
 R2: C1 + C10 + C29 + C38 + C47 + C56 + C65 + C74 + C83 = 1
 R3: C2 + C11 + C20 + C39 + C48 + C57 + C66 + C75 + C84 = 1
 R4: C3 + C12 + C21 + C30 + C49 + C58 + C67 + C76 + C85 = 1
 R5: C4 + C13 + C22 + C31 + C40 + C59 + C68 + C77 + C86 = 1
 R6: C5 + C14 + C23 + C32 + C41 + C50 + C69 + C78 + C87 = 1
 R7: C6 + C15 + C24 + C33 + C42 + C51 + C60 + C79 + C88 = 1
 R8: C7 + C16 + C25 + C34 + C43 + C52 + C61 + C70 + C89 = 1
 R9: C8 + C17 + C26 + C35 + C44 + C53 + C62 + C71 + C80 = 1
 R10: C0 + C1 + C2 + C3 + C4 + C5 + C6 + C7 + C8 = 1
 R11: C9 + C10 + C11 + C12 + C13 + C14 + C15 + C16 + C17 = 1
 R12: C18 + C19 + C20 + C21 + C22 + C23 + C24 + C25 + C26 = 1
 R13: C27 + C28 + C29 + C30 + C31 + C32 + C33 + C34 + C35 = 1
 R14: C36 + C37 + C38 + C39 + C40 + C41 + C42 + C43 + C44 = 1
 R15: C45 + C46 + C47 + C48 + C49 + C50 + C51 + C52 + C53 = 1
 R16: C54 + C55 + C56 + C57 + C58 + C59 + C60 + C61 + C62 = 1
 R17: C63 + C64 + C65 + C66 + C67 + C68 + C69 + C70 + C71 = 1
 R18: C72 + C73 + C74 + C75 + C76 + C77 + C78 + C79 + C80 = 1
 R19: C81 + C82 + C83 + C84 + C85 + C86 + C87 + C88 + C89 = 1
 R20: 10 C10 + C91 - C92 <= 9
 R21: 10 C11 + C91 - C93 <= 9
 R22: 10 C12 + C91 - C94 <= 9
 R23: 10 C13 + C91 - C95 <= 9
 R24: 10 C14 + C91 - C96 <= 9
 R25: 10 C15 + C91 - C97 <= 9
 R26: 10 C16 + C91 - C98 <= 9
 R27: 10 C17 + C91 - C99 <= 9
 R28: 10 C19 - C91 + C92 <= 9
 R29: 10 C20 + C92 - C93 <= 9
 R30: 10 C21 + C92 - C94 <= 9
 R31: 10 C22 + C92 - C95 <= 9
 R32: 10 C23 + C92 - C96 <= 9
 R33: 10 C24 + C92 - C97 <= 9
 R34: 10 C25 + C92 - C98 <= 9
 R35: 10 C26 + C92 - C99 <= 9
 R36: 10 C28 - C91 + C93 <= 9
 R37: 10 C29 - C92 + C93 <= 9
 R38: 10 C30 + C93 - C94 <= 9
 R39: 10 C31 + C93 - C95 <= 9
 R40: 10 C32 + C93 - C96 <= 9
 R41: 10 C33 + C93 - C97 <= 9
 R42: 10 C34 + C93 - C98 <= 9
 R43: 10 C35 + C93 - C99 <= 9
 R44: 10 C37 - C91 + C94 <= 9
 R45: 10 C38 - C92 + C94 <= 9
 R46: 10 C39 - C93 + C94 <= 9
 R47: 10 C40 + C94 - C95 <= 9
 R48: 10 C41 + C94 - C96 <= 9
 R49: 10 C42 + C94 - C97 <= 9
 R50: 10 C43 + C94 - C98 <= 9
 R51: 10 C44 + C94 - C99 <= 9
 R52: 10 C46 - C91 + C95 <= 9
 R53: 10 C47 - C92 + C95 <= 9
 R54: 10 C48 - C93 + C95 <= 9
 R55: 10 C49 - C94 + C95 <= 9
 R56: 10 C50 + C95 - C96 <= 9
 R57: 10 C51 + C95 - C97 <= 9
 R58: 10 C52 + C95 - C98 <= 9
 R59: 10 C53 + C95 - C99 <= 9
 R60: 10 C55 - C91 + C96 <= 9
 R61: 10 C56 - C92 + C96 <= 9
 R62: 10 C57 - C93 + C96 <= 9
 R63: 10 C58 - C94 + C96 <= 9
 R64: 10 C59 - C95 + C96 <= 9
 R65: 10 C60 + C96 - C97 <= 9
 R66: 10 C61 + C96 - C98 <= 9
 R67: 10 C62 + C96 - C99 <= 9
 R68: 10 C64 - C91 + C97 <= 9
 R69: 10 C65 - C92 + C97 <= 9
 R70: 10 C66 - C93 + C97 <= 9
 R71: 10 C67 - C94 + C97 <= 9
 R72: 10 C68 - C95 + C97 <= 9
 R73: 10 C69 - C96 + C97 <= 9
 R74: 10 C70 + C97 - C98 <= 9
 R75: 10 C71 + C97 - C99 <= 9
 R76: 10 C73 - C91 + C98 <= 9
 R77: 10 C74 - C92 + C98 <= 9
 R78: 10 C75 - C93 + C98 <= 9
 R79: 10 C76 - C94 + C98 <= 9
 R80: 10 C77 - C95 + C98 <= 9
 R81: 10 C78 - C96 + C98 <= 9
 R82: 10 C79 - C97 + C98 <= 9
 R83: 10 C80 + C98 - C99 <= 9
 R84: 10 C82 - C91 + C99 <= 9
 R85: 10 C83 - C92 + C99 <= 9
 R86: 10 C84 - C93 + C99 <= 9
 R87: 10 C85 - C94 + C99 <= 9
 R88: 10 C86 - C95 + C99 <= 9
 R89: 10 C87 - C96 + C99 <= 9
 R90: 10 C88 - C97 + C99 <= 9
 R91: 10 C89 - C98 + C99 <= 9
 R92: C90 = 1
Bounds
Binaries
 C0 C1 C2 C3 C4 C5 C6 C7 C8 C9 C10 C11 C12 C13 C14 C15 C16 C17 C18 C19 C20
 C21 C22 C23 C24 C25 C26 C27 C28 C29 C30 C31 C32 C33 C34 C35 C36 C37 C38
 C39 C40 C41 C42 C43 C44 C45 C46 C47 C48 C49 C50 C51 C52 C53 C54 C55 C56
 C57 C58 C59 C60 C61 C62 C63 C64 C65 C66 C67 C68 C69 C70 C71 C72 C73 C74
 C75 C76 C77 C78 C79 C80 C81 C82 C83 C84 C85 C86 C87 C88 C89
End
